c "654811.clq"
p edge 120 464
e 1 5
e 1 6
e 1 8
e 1 9
e 1 18
e 1 19
e 1 26
e 1 30
e 1 33
e 1 58
e 1 70
e 1 74
e 1 82
e 1 104
e 1 109
e 1 110
e 1 111
e 2 5
e 2 6
e 2 7
e 2 11
e 2 14
e 2 22
e 2 76
e 2 81
e 2 87
e 2 91
e 2 112
e 3 5
e 3 6
e 3 7
e 3 10
e 3 13
e 3 14
e 3 17
e 3 18
e 3 23
e 3 25
e 3 30
e 3 31
e 3 32
e 3 35
e 3 38
e 3 52
e 3 62
e 3 64
e 3 77
e 3 85
e 3 87
e 3 93
e 3 99
e 3 101
e 3 110
e 3 111
e 4 5
e 4 9
e 4 11
e 4 12
e 4 13
e 4 14
e 4 22
e 4 27
e 4 28
e 4 29
e 4 31
e 4 56
e 4 86
e 4 100
e 4 116
e 5 6
e 5 7
e 5 8
e 5 9
e 5 14
e 5 15
e 5 24
e 5 27
e 5 42
e 5 44
e 5 58
e 5 60
e 5 70
e 5 73
e 5 76
e 5 93
e 6 7
e 6 8
e 6 9
e 6 11
e 6 16
e 6 17
e 6 19
e 6 25
e 6 28
e 6 54
e 6 55
e 6 56
e 6 59
e 6 103
e 6 108
e 6 117
e 7 8
e 7 10
e 7 15
e 7 17
e 7 23
e 7 25
e 7 27
e 7 34
e 7 38
e 7 39
e 7 46
e 7 47
e 7 55
e 7 61
e 7 66
e 7 71
e 7 72
e 7 79
e 7 85
e 7 96
e 7 97
e 7 103
e 7 114
e 7 120
e 8 10
e 8 12
e 8 16
e 8 18
e 8 21
e 8 23
e 8 26
e 8 32
e 8 33
e 8 39
e 8 40
e 8 41
e 8 43
e 8 57
e 8 59
e 8 64
e 8 65
e 8 82
e 8 92
e 8 98
e 8 116
e 9 10
e 9 11
e 9 12
e 9 21
e 9 22
e 9 37
e 9 48
e 9 49
e 9 52
e 9 57
e 9 64
e 9 67
e 9 78
e 9 83
e 9 96
e 9 101
e 9 108
e 9 110
e 9 112
e 10 12
e 10 13
e 10 16
e 10 19
e 10 21
e 10 22
e 10 26
e 10 31
e 10 41
e 10 46
e 10 56
e 10 59
e 10 60
e 10 71
e 10 79
e 10 85
e 10 92
e 10 93
e 10 102
e 10 103
e 10 109
e 10 115
e 10 120
e 11 13
e 11 24
e 11 25
e 11 72
e 11 74
e 11 75
e 11 120
e 12 19
e 12 29
e 12 41
e 12 82
e 12 106
e 13 15
e 13 20
e 13 35
e 13 39
e 13 44
e 13 45
e 13 56
e 13 60
e 13 67
e 13 69
e 13 72
e 13 73
e 13 88
e 13 107
e 13 117
e 14 15
e 14 16
e 14 18
e 14 20
e 14 23
e 14 33
e 14 34
e 14 37
e 14 44
e 14 45
e 14 48
e 14 50
e 14 53
e 14 69
e 14 71
e 14 73
e 14 75
e 14 89
e 14 94
e 14 98
e 15 20
e 15 24
e 15 31
e 15 35
e 15 41
e 15 43
e 15 47
e 15 57
e 15 74
e 15 78
e 15 105
e 16 17
e 16 20
e 16 28
e 16 29
e 16 30
e 16 34
e 16 36
e 16 40
e 16 46
e 16 49
e 16 50
e 16 62
e 16 79
e 16 86
e 17 24
e 17 28
e 17 30
e 17 37
e 17 75
e 17 92
e 17 113
e 18 36
e 18 90
e 19 21
e 19 39
e 19 43
e 19 52
e 19 53
e 19 65
e 19 89
e 19 98
e 19 102
e 20 26
e 20 36
e 20 38
e 20 40
e 20 53
e 20 66
e 20 105
e 20 119
e 21 50
e 21 96
e 21 102
e 22 29
e 22 47
e 22 111
e 23 37
e 23 78
e 23 119
e 24 32
e 24 44
e 24 59
e 25 33
e 25 40
e 25 60
e 25 77
e 25 88
e 26 27
e 26 45
e 26 51
e 26 66
e 26 78
e 26 87
e 26 116
e 27 38
e 27 42
e 27 61
e 27 70
e 27 86
e 27 96
e 27 104
e 28 42
e 28 45
e 28 52
e 28 65
e 28 79
e 28 81
e 28 110
e 28 115
e 29 36
e 29 54
e 29 55
e 29 73
e 29 91
e 30 32
e 30 67
e 30 68
e 30 81
e 30 84
e 30 95
e 30 113
e 31 42
e 31 62
e 31 105
e 32 48
e 32 63
e 32 115
e 33 34
e 33 51
e 33 68
e 33 80
e 33 104
e 34 35
e 34 51
e 34 100
e 34 114
e 35 74
e 36 47
e 36 48
e 36 69
e 37 49
e 37 50
e 37 51
e 37 66
e 37 72
e 37 85
e 37 89
e 37 90
e 38 94
e 39 43
e 39 55
e 39 58
e 39 114
e 40 54
e 40 83
e 40 100
e 41 99
e 42 46
e 42 61
e 42 77
e 43 61
e 43 71
e 43 76
e 43 80
e 45 88
e 45 97
e 45 106
e 46 84
e 46 119
e 47 49
e 47 80
e 47 90
e 47 94
e 48 58
e 49 53
e 49 63
e 49 75
e 49 87
e 49 91
e 49 95
e 50 77
e 50 98
e 51 68
e 51 80
e 51 106
e 51 107
e 51 108
e 52 54
e 52 63
e 52 84
e 52 97
e 52 113
e 52 118
e 53 65
e 54 69
e 54 88
e 54 106
e 55 57
e 55 76
e 55 84
e 55 92
e 55 99
e 56 62
e 57 83
e 57 107
e 57 112
e 58 104
e 61 68
e 62 63
e 62 64
e 62 119
e 63 67
e 63 108
e 67 70
e 67 95
e 67 102
e 67 118
e 68 82
e 68 118
e 70 91
e 72 81
e 74 103
e 74 114
e 74 116
e 75 83
e 76 90
e 76 94
e 76 107
e 77 105
e 79 95
e 79 101
e 79 118
e 80 93
e 80 100
e 81 109
e 81 117
e 82 120
e 84 86
e 84 89
e 84 99
e 85 97
e 86 101
e 95 111
e 102 117
e 104 109
e 106 112
e 106 113
e 111 115
